c turning on binary mode checking
c parsing input formula with 202048 variables and 780985 clauses
c finished parsing, read 15879588 bytes from proof file
c detected empty clause; start verification via backward checking
c 7143 of 780985 clauses in core                            
c 6176 of 438724 lemmas in core using 136033 resolution steps
c 0 RAT lemmas in core; 685 redundant literals in core lemmas
s VERIFIED
c verification time: 2.082 seconds
